num_offers = 20;
num_halls = 10;
start=[16,23,29,86,12,19,15,63,78,53,12,35,10,1,14,23,24,31,14,20];
end=[97,27,77,94,36,43,33,93,95,65,19,44,32,58,72,71,57,41,94,65];
price=[6759,106,1068,688,1248,2218,1451,834,554,554,727,103,1453,1628,5629,4858,1638,239,7482,4320];
requirement=[315,533,785,573,265,499,752,332,445,991,983,614,633,494,839,526,898,396,386,594];
capacity=[764,925,648,533,889,790,937,887,859,520];
